c This is a CNF SAT formula in the DIMACS CNF format,
c produced with the bc2cnf translator by Tommi Junttila;
c see http://users.ics.aalto.fi/tjunttil/circuits/index.html
c phi_Gamma <-> 1
c phi_T_transitions <-> 1
c phi_T_transitions_consistency <-> 1
c phi_T <-> 1
c phi_sim_leaves <-> 1
c phi_sim_transition <-> 1
c phi_sim <-> 1
c FORMULA <-> 1
c pi_0_9 <-> 2
c pi_0_8 <-> 15
c pi_0_0 <-> 28
c pi_0_7 <-> 28
c pi_0_6 <-> 33
c pi_0_5 <-> 37
c pi_0_4 <-> 41
c pi_0_3 <-> 43
c pi_0_2 <-> 48
c pi_0_1 <-> 50
c alp_approved_1_0 <-> 56
c alp_approved_1_1 <-> 56
c alp_approved_1_2 <-> 56
c alp_approved_1_3 <-> 56
c alp_approved_1_4 <-> 56
c alp_approved_0_5 <-> 56
c alp_approved_1_6 <-> 56
c alp_approved_1_7 <-> 56
c alp_approved_0_8 <-> 56
c alp_approved_1_9 <-> 56
c alp_approved_1_5 <-> 57
c alp_approved_1_8 <-> 57
c approved_P100 <-> 57
c alp_approved_0_0 <-> 58
c alp_approved_0_1 <-> 58
c alp_approved_0_2 <-> 58
c alp_approved_0_3 <-> 58
c alp_approved_0_4 <-> 58
c alp_approved_0_6 <-> 58
c alp_approved_0_7 <-> 58
c alp_approved_0_9 <-> 58
c approved_P0 <-> 58
c tau_0_3_approved_1 <-> 85
c tau_0_3_approved_0 <-> 86
c tau_0_2_approved_1 <-> 87
c tau_0_2_approved_0 <-> 88
c tau_0_1_approved_1 <-> 89
c tau_0_1_approved_0 <-> 90
c tau_0_0_approved_1 <-> 91
c tau_0_0_approved_0 <-> 92
c phi_T_feature_det <-> 93
c lam_0_credit_score <-> 106
c lam_0_dependents <-> 108
c lam_0_monthly_income <-> 110
c lam_0_age <-> 111
p wcnf 111 314 11  
11 1 0
11 2 -3 0
11 2 -6 0
11 -2 6 3 0
1 2 0
11 -3 4 0
11 -3 106 0
11 3 -106 -4 0
11 -4 -87 0
11 -4 5 0
11 4 -5 87 0
11 5 88 0
11 5 -58 0
11 -5 58 -88 0
11 6 -7 0
11 6 -10 0
11 -6 10 7 0
11 -7 8 0
11 -7 108 0
11 7 -108 -8 0
11 -8 -89 0
11 -8 9 0
11 8 -9 89 0
11 9 90 0
11 9 -58 0
11 -9 58 -90 0
11 10 -11 0
11 10 -12 0
11 -10 12 11 0
11 -11 13 0
11 -11 110 0
11 11 -110 -13 0
11 -12 13 0
11 -12 111 0
11 12 -111 -13 0
11 -13 -91 0
11 -13 14 0
11 13 -14 91 0
11 14 92 0
11 14 -58 0
11 -14 58 -92 0
11 15 -16 0
11 15 -19 0
11 -15 19 16 0
1 15 0
11 -16 17 0
11 -16 106 0
11 16 -106 -17 0
11 -17 -92 0
11 -17 18 0
11 17 -18 92 0
11 18 91 0
11 18 -57 0
11 -18 57 -91 0
11 19 -20 0
11 19 -21 0
11 -19 21 20 0
11 -20 23 0
11 -20 108 0
11 20 -108 -23 0
11 21 -22 0
11 21 -25 0
11 -21 25 22 0
11 -22 23 0
11 -22 110 0
11 22 -110 -23 0
11 -23 -90 0
11 -23 24 0
11 23 -24 90 0
11 24 89 0
11 24 -57 0
11 -24 57 -89 0
11 -25 26 0
11 -25 111 0
11 25 -111 -26 0
11 -26 27 0
11 -26 -86 0
11 26 86 -27 0
11 27 85 0
11 27 -57 0
11 -27 57 -85 0
11 28 -29 0
11 28 -30 0
11 -28 30 29 0
1 28 0
11 -29 13 0
11 -29 106 0
11 29 -106 -13 0
11 30 -7 0
11 30 -31 0
11 -30 31 7 0
11 31 -11 0
11 31 -32 0
11 -31 32 11 0
11 -32 4 0
11 -32 111 0
11 32 -111 -4 0
11 33 -29 0
11 33 -34 0
11 -33 34 29 0
1 33 0
11 34 -7 0
11 34 -35 0
11 -34 35 7 0
11 35 -12 0
11 35 -36 0
11 -35 36 12 0
11 -36 8 0
11 -36 110 0
11 36 -110 -8 0
11 37 -38 0
11 37 -39 0
11 -37 39 38 0
1 37 0
11 -38 23 0
11 -38 106 0
11 38 -106 -23 0
11 39 -21 0
11 39 -40 0
11 -39 40 21 0
11 -40 17 0
11 -40 108 0
11 40 -108 -17 0
11 41 -6 0
11 41 -42 0
11 -41 42 6 0
1 41 0
11 -42 8 0
11 -42 106 0
11 42 -106 -8 0
11 43 -42 0
11 43 -44 0
11 -43 44 42 0
1 43 0
11 44 -45 0
11 44 -46 0
11 -44 46 45 0
11 -45 13 0
11 -45 108 0
11 45 -108 -13 0
11 46 -11 0
11 46 -47 0
11 -46 47 11 0
11 -47 8 0
11 -47 111 0
11 47 -111 -8 0
11 48 -3 0
11 48 -49 0
11 -48 49 3 0
1 48 0
11 49 -7 0
11 49 -46 0
11 -49 46 7 0
11 50 -3 0
11 50 -51 0
11 -50 51 3 0
1 50 0
11 51 -45 0
11 51 -52 0
11 -51 52 45 0
11 52 -11 0
11 52 -53 0
11 -52 53 11 0
11 -53 54 0
11 -53 111 0
11 53 -111 -54 0
11 -54 -85 0
11 -54 55 0
11 54 -55 85 0
11 55 86 0
11 55 -58 0
11 -55 58 -86 0
11 -56 0
11 59 106 0
11 59 -60 0
11 -59 60 -106 0
11 59 0
11 -60 -85 0
11 -60 -86 0
11 60 86 85 0
11 61 108 0
11 61 -62 0
11 -61 62 -108 0
11 61 0
11 -62 -85 0
11 -62 63 0
11 62 -63 85 0
11 -63 -86 0
11 -63 64 0
11 63 -64 86 0
11 -64 -87 0
11 -64 -88 0
11 64 88 87 0
11 65 -62 0
11 65 110 0
11 -65 -110 62 0
11 65 0
11 66 106 0
11 66 -67 0
11 -66 67 -106 0
11 66 0
11 -67 68 0
11 -67 71 0
11 67 -71 -68 0
11 68 -69 0
11 68 -70 0
11 -68 70 69 0
11 -69 -88 0
11 -69 87 0
11 69 -87 88 0
11 -70 -87 0
11 -70 88 0
11 70 -88 87 0
11 -71 72 0
11 -71 75 0
11 71 -75 -72 0
11 72 -73 0
11 72 -74 0
11 -72 74 73 0
11 -73 -90 0
11 -73 89 0
11 73 -89 90 0
11 -74 -89 0
11 -74 90 0
11 74 -90 89 0
11 75 -76 0
11 75 -77 0
11 -75 77 76 0
11 -76 -92 0
11 -76 91 0
11 76 -91 92 0
11 -77 -91 0
11 -77 92 0
11 77 -92 91 0
11 78 108 0
11 78 -71 0
11 -78 71 -108 0
11 78 0
11 79 110 0
11 79 -71 0
11 -79 71 -110 0
11 79 0
11 80 111 0
11 80 -81 0
11 -80 81 -111 0
11 80 0
11 -81 67 0
11 -81 82 0
11 81 -82 -67 0
11 82 -83 0
11 82 -84 0
11 -82 84 83 0
11 -83 -86 0
11 -83 85 0
11 83 -85 86 0
11 -84 -85 0
11 -84 86 0
11 84 -86 85 0
11 93 -94 0
11 93 -97 0
11 -93 97 94 0
11 93 0
11 -94 -108 0
11 -94 95 0
11 94 -95 108 0
11 -95 -110 0
11 -95 96 0
11 95 -96 110 0
11 -96 -111 0
11 -96 106 0
11 96 -106 111 0
11 97 -98 0
11 97 -101 0
11 -97 101 98 0
11 -98 -106 0
11 -98 99 0
11 98 -99 106 0
11 -99 -110 0
11 -99 100 0
11 99 -100 110 0
11 -100 -111 0
11 -100 108 0
11 100 -108 111 0
11 101 -102 0
11 101 -105 0
11 -101 105 102 0
11 -102 -106 0
11 -102 103 0
11 102 -103 106 0
11 -103 -108 0
11 -103 104 0
11 103 -104 108 0
11 -104 -111 0
11 -104 110 0
11 104 -110 111 0
11 -105 -106 0
11 -105 107 0
11 105 -107 106 0
11 -107 -108 0
11 -107 109 0
11 107 -109 108 0
11 -109 -110 0
11 -109 111 0
11 109 -111 110 0
